
n_res = 6;
rcap = [54, 41, 597, 589, 601, 588];
rtype = [1, 1, 2, 2, 2, 2];
n_tasks = 50;
modes =  [{1, 2, 3, 4, 5, 6}, {7, 8, 9, 10, 11, 12}, {13, 14, 15, 16, 17, 18}, {19, 20, 21, 22, 23, 24}, {25, 26, 27, 28, 29, 30}, {31, 32, 33, 34, 35, 36}, {37, 38, 39, 40, 41, 42}, {43, 44, 45, 46, 47, 48}, {49, 50, 51, 52, 53, 54}, {55, 56, 57, 58, 59, 60}, {61, 62, 63, 64, 65, 66}, {67, 68, 69, 70, 71, 72}, {73, 74, 75, 76, 77, 78}, {79, 80, 81, 82, 83, 84}, {85, 86, 87, 88, 89, 90}, {91, 92, 93, 94, 95, 96}, {97, 98, 99, 100, 101, 102}, {103, 104, 105, 106, 107, 108}, {109, 110, 111, 112, 113, 114}, {115, 116, 117, 118, 119, 120}, {121, 122, 123, 124, 125, 126}, {127, 128, 129, 130, 131, 132}, {133, 134, 135, 136, 137, 138}, {139, 140, 141, 142, 143, 144}, {145, 146, 147, 148, 149, 150}, {151, 152, 153, 154, 155, 156}, {157, 158, 159, 160, 161, 162}, {163, 164, 165, 166, 167, 168}, {169, 170, 171, 172, 173, 174}, {175, 176, 177, 178, 179, 180}, {181, 182, 183, 184, 185, 186}, {187, 188, 189, 190, 191, 192}, {193, 194, 195, 196, 197, 198}, {199, 200, 201, 202, 203, 204}, {205, 206, 207, 208, 209, 210}, {211, 212, 213, 214, 215, 216}, {217, 218, 219, 220, 221, 222}, {223, 224, 225, 226, 227, 228}, {229, 230, 231, 232, 233, 234}, {235, 236, 237, 238, 239, 240}, {241, 242, 243, 244, 245, 246}, {247, 248, 249, 250, 251, 252}, {253, 254, 255, 256, 257, 258}, {259, 260, 261, 262, 263, 264}, {265, 266, 267, 268, 269, 270}, {271, 272, 273, 274, 275, 276}, {277, 278, 279, 280, 281, 282}, {283, 284, 285, 286, 287, 288}, {289, 290, 291, 292, 293, 294}, {295, 296, 297, 298, 299, 300}];
succ =  [{34, 29, 26, 19, 14, 4}, {50, 49, 33, 28, 16, 14, 9}, {49, 46, 33, 32, 30, 28, 25, 16, 15}, {50, 49, 47, 46, 33, 32, 25, 11}, {50, 49, 48, 46, 45, 44, 37, 32, 29, 28, 26, 25}, {50, 48, 46, 45, 37, 33, 29, 26, 25, 16}, {49, 32, 29, 14, 9}, {49, 47, 46, 45, 44, 43, 42, 41, 39, 38, 37, 36, 32}, {48, 46, 45, 44, 38, 37, 26, 25}, {49, 42, 31, 15}, {48, 45, 44, 43, 41, 40, 38, 30, 28}, {49, 48, 46, 45, 44, 37, 32, 28}, {41, 38, 37, 35, 32, 28}, {46, 45, 44, 43, 37, 25}, {50, 45, 43, 40, 39, 38, 37, 36}, {47, 44, 42, 40, 39, 36}, {41, 40, 37, 29}, {43, 42, 40, 30}, {45, 42, 41, 38, 36}, {47, 41, 40, 37, 36}, {44, 43, 42, 41, 37}, {48, 39, 36, 33}, {44, 39, 38, 36}, {43, 36, 32}, {41, 39, 36}, {47, 43, 36}, {42, 37, 36}, {42, 36}, {38, 36}, {37, 36}, {46, 39}, {40}, {38}, {41}, {39}, {}, {}, {}, {}, {}, {}, {}, {}, {}, {}, {}, {}, {}, {}, {}];
n_opt = 300;
dur = [2, 3, 8, 13, 19, 20, 1, 2, 9, 10, 13, 16, 11, 13, 15, 16, 18, 19, 2, 10, 14, 16, 18, 19, 1, 2, 4, 6, 14, 18, 3, 4, 5, 6, 16, 19, 7, 10, 12, 13, 18, 19, 1, 2, 5, 12, 14, 20, 1, 5, 11, 12, 14, 17, 7, 10, 11, 12, 13, 16, 4, 6, 7, 11, 13, 20, 1, 2, 3, 13, 18, 19, 2, 11, 12, 15, 17, 20, 7, 13, 15, 18, 19, 20, 2, 3, 6, 7, 8, 20, 1, 6, 7, 9, 13, 20, 2, 9, 10, 17, 18, 20, 5, 6, 7, 14, 16, 18, 2, 11, 12, 13, 14, 16, 1, 2, 3, 10, 11, 19, 1, 2, 4, 6, 7, 12, 1, 2, 4, 5, 11, 12, 2, 4, 5, 12, 19, 20, 4, 5, 7, 10, 11, 15, 2, 3, 6, 15, 19, 20, 1, 2, 10, 13, 15, 16, 1, 2, 3, 4, 18, 19, 1, 7, 8, 11, 15, 17, 1, 3, 5, 7, 16, 18, 1, 3, 7, 12, 13, 14, 6, 7, 8, 10, 11, 15, 1, 2, 4, 10, 17, 18, 5, 12, 15, 16, 17, 18, 1, 5, 7, 8, 9, 14, 1, 2, 3, 4, 7, 8, 1, 2, 3, 10, 13, 20, 6, 9, 10, 14, 16, 20, 7, 11, 14, 15, 16, 19, 2, 6, 16, 17, 18, 19, 5, 12, 15, 17, 18, 20, 2, 3, 5, 14, 15, 20, 7, 9, 12, 14, 16, 20, 2, 7, 8, 9, 10, 19, 1, 2, 5, 6, 9, 15, 2, 3, 6, 11, 13, 17, 3, 11, 13, 15, 18, 19, 2, 13, 14, 15, 16, 17, 1, 2, 6, 7, 9, 14, 1, 5, 9, 15, 16, 17, 3, 5, 6, 13, 16, 18];
rreq = [|4, 3, 3, 3, 3, 3, 4, 4, 3, 3, 2, 1, 5, 5, 5, 5, 5, 5, 2, 2, 2, 1, 1, 1, 5, 4, 3, 3, 2, 2, 3, 3, 3, 3, 3, 3, 3, 3, 3, 3, 3, 3, 5, 5, 5, 5, 5, 5, 4, 3, 3, 2, 2, 2, 3, 3, 3, 3, 3, 3, 4, 4, 4, 4, 4, 4, 5, 5, 5, 5, 5, 5, 4, 3, 3, 3, 3, 3, 4, 4, 4, 4, 4, 4, 2, 2, 2, 2, 2, 2, 4, 3, 3, 3, 3, 3, 5, 4, 4, 3, 3, 3, 4, 3, 3, 3, 3, 3, 4, 4, 3, 3, 1, 1, 4, 3, 3, 3, 3, 3, 2, 2, 2, 2, 2, 2, 2, 2, 2, 2, 1, 1, 4, 4, 4, 4, 3, 3, 4, 3, 3, 2, 1, 1, 5, 4, 4, 4, 4, 4, 2, 2, 2, 2, 2, 2, 5, 4, 4, 3, 3, 3, 3, 3, 3, 2, 2, 1, 5, 5, 5, 5, 5, 5, 2, 1, 1, 1, 1, 1, 4, 4, 4, 4, 4, 4, 4, 3, 3, 2, 1, 1, 2, 1, 1, 1, 1, 1, 3, 3, 3, 3, 2, 2, 3, 3, 3, 3, 3, 3, 3, 2, 2, 2, 2, 2, 4, 4, 4, 4, 4, 4, 4, 4, 4, 4, 4, 4, 4, 4, 4, 4, 4, 4, 2, 2, 2, 1, 1, 1, 4, 4, 4, 4, 3, 3, 4, 3, 3, 3, 3, 3, 3, 3, 3, 2, 2, 1, 3, 2, 2, 1, 1, 1, 3, 3, 3, 3, 3, 3, 2, 1, 1, 1, 1, 1, 5, 4, 4, 4, 3, 3, 4, 3, 3, 2, 2, 1, 3, 2, 2, 2, 2, 2, 5, 4, 4, 4, 4, 4
 |3, 2, 2, 2, 1, 1, 3, 3, 2, 2, 2, 1, 1, 1, 1, 1, 1, 1, 5, 5, 5, 5, 5, 5, 3, 3, 2, 2, 1, 1, 1, 1, 1, 1, 1, 1, 3, 2, 2, 1, 1, 1, 5, 4, 4, 4, 3, 3, 4, 4, 4, 3, 3, 2, 5, 4, 4, 3, 2, 2, 5, 5, 5, 5, 5, 5, 4, 3, 3, 2, 1, 1, 4, 4, 4, 3, 3, 2, 3, 3, 3, 3, 2, 2, 2, 1, 1, 1, 1, 1, 4, 4, 3, 3, 3, 2, 2, 2, 2, 2, 2, 2, 2, 2, 2, 1, 1, 1, 1, 1, 1, 1, 1, 1, 2, 2, 2, 2, 2, 2, 2, 2, 2, 2, 2, 2, 4, 3, 3, 3, 2, 2, 4, 4, 4, 4, 4, 4, 2, 2, 2, 1, 1, 1, 3, 2, 2, 2, 1, 1, 2, 2, 2, 2, 2, 2, 3, 3, 2, 2, 1, 1, 4, 4, 4, 4, 4, 4, 4, 4, 4, 4, 4, 4, 3, 3, 3, 2, 1, 1, 3, 2, 2, 2, 1, 1, 5, 4, 3, 3, 1, 1, 4, 3, 3, 2, 2, 2, 3, 2, 2, 2, 1, 1, 3, 2, 2, 2, 2, 2, 4, 3, 2, 2, 1, 1, 4, 4, 3, 3, 2, 2, 3, 2, 2, 2, 1, 1, 3, 3, 3, 3, 3, 3, 1, 1, 1, 1, 1, 1, 4, 4, 4, 4, 3, 3, 5, 4, 3, 3, 2, 2, 2, 1, 1, 1, 1, 1, 3, 2, 2, 2, 1, 1, 4, 3, 3, 2, 2, 2, 2, 1, 1, 1, 1, 1, 1, 1, 1, 1, 1, 1, 2, 2, 2, 2, 2, 2, 4, 3, 2, 2, 2, 1, 5, 4, 3, 2, 2, 1
 |14, 12, 11, 9, 8, 7, 19, 18, 17, 17, 15, 15, 9, 9, 9, 9, 9, 9, 18, 16, 13, 11, 11, 8, 16, 16, 14, 14, 12, 12, 7, 5, 5, 4, 3, 2, 20, 19, 18, 16, 16, 15, 18, 18, 16, 14, 13, 12, 12, 8, 7, 5, 4, 3, 5, 4, 3, 3, 1, 1, 10, 8, 7, 4, 4, 2, 13, 13, 9, 7, 5, 4, 15, 13, 12, 9, 7, 6, 6, 5, 5, 3, 3, 2, 17, 12, 10, 7, 3, 2, 17, 17, 17, 17, 17, 17, 4, 4, 4, 4, 3, 3, 6, 6, 5, 4, 2, 1, 18, 18, 16, 16, 14, 13, 10, 9, 8, 6, 4, 4, 7, 7, 6, 5, 4, 4, 5, 5, 5, 5, 5, 5, 10, 9, 9, 7, 6, 4, 20, 18, 17, 17, 16, 15, 18, 18, 18, 18, 18, 18, 12, 11, 10, 9, 9, 8, 15, 13, 13, 12, 12, 11, 13, 12, 11, 9, 9, 8, 10, 9, 9, 7, 4, 3, 17, 16, 11, 9, 6, 4, 11, 11, 9, 6, 4, 2, 12, 10, 9, 8, 6, 4, 15, 15, 14, 14, 13, 13, 19, 17, 15, 15, 11, 11, 15, 14, 13, 13, 12, 12, 8, 8, 7, 6, 5, 4, 5, 5, 4, 4, 2, 2, 19, 19, 19, 19, 19, 19, 15, 13, 13, 8, 6, 5, 20, 18, 17, 15, 15, 13, 10, 10, 10, 10, 10, 10, 11, 10, 9, 7, 5, 4, 10, 9, 9, 8, 7, 6, 18, 17, 15, 15, 13, 12, 19, 15, 13, 12, 9, 7, 15, 15, 14, 12, 10, 10, 16, 13, 13, 12, 9, 8, 16, 15, 15, 13, 13, 12, 11, 10, 8, 7, 7, 6, 19, 19, 18, 17, 17, 16
 |16, 16, 14, 14, 12, 12, 19, 18, 16, 13, 12, 8, 14, 12, 10, 7, 5, 3, 13, 12, 11, 9, 8, 8, 11, 10, 7, 6, 5, 3, 12, 12, 12, 12, 12, 12, 8, 8, 6, 5, 5, 3, 18, 18, 18, 18, 17, 17, 16, 15, 14, 14, 13, 12, 10, 9, 9, 8, 7, 7, 14, 12, 10, 9, 7, 5, 11, 9, 9, 9, 8, 7, 15, 14, 14, 14, 13, 13, 15, 14, 12, 11, 11, 9, 1, 1, 1, 1, 1, 1, 16, 15, 14, 14, 12, 12, 12, 10, 9, 8, 6, 4, 9, 9, 9, 8, 8, 8, 18, 18, 18, 18, 18, 18, 20, 17, 16, 14, 13, 13, 18, 13, 12, 7, 6, 4, 19, 19, 19, 19, 19, 19, 18, 17, 17, 16, 14, 14, 13, 11, 10, 9, 8, 7, 9, 8, 7, 7, 7, 6, 19, 18, 17, 17, 15, 15, 18, 18, 16, 15, 13, 13, 9, 9, 8, 8, 7, 7, 14, 10, 9, 9, 5, 4, 16, 14, 12, 10, 7, 4, 16, 16, 15, 13, 12, 12, 18, 14, 14, 11, 7, 3, 7, 6, 6, 3, 3, 2, 5, 4, 3, 3, 2, 1, 14, 13, 12, 9, 7, 5, 8, 8, 8, 8, 8, 8, 5, 5, 5, 5, 5, 5, 17, 17, 15, 13, 13, 10, 18, 17, 15, 15, 12, 12, 13, 13, 10, 10, 9, 7, 15, 14, 11, 11, 9, 5, 12, 11, 9, 7, 6, 6, 10, 10, 8, 7, 5, 2, 11, 9, 8, 8, 6, 6, 8, 6, 6, 4, 3, 1, 8, 6, 6, 5, 3, 1, 12, 10, 10, 9, 8, 6, 13, 11, 11, 11, 10, 9, 16, 15, 14, 14, 13, 12, 10, 10, 8, 8, 6, 5
 |12, 12, 9, 8, 4, 2, 16, 14, 10, 7, 6, 1, 18, 17, 17, 15, 15, 14, 19, 16, 14, 9, 7, 6, 20, 19, 19, 19, 19, 19, 10, 9, 8, 7, 6, 6, 12, 10, 9, 7, 7, 5, 17, 16, 13, 8, 8, 5, 5, 3, 3, 3, 2, 1, 17, 16, 13, 11, 8, 7, 19, 19, 19, 19, 19, 19, 10, 9, 9, 9, 9, 9, 17, 16, 15, 15, 13, 13, 16, 14, 10, 9, 8, 4, 16, 16, 16, 16, 16, 16, 6, 5, 4, 3, 3, 2, 18, 13, 12, 9, 7, 7, 7, 6, 5, 5, 5, 4, 3, 3, 2, 2, 2, 1, 19, 18, 17, 17, 17, 16, 12, 11, 9, 7, 6, 3, 18, 16, 15, 15, 13, 11, 17, 17, 17, 16, 16, 16, 10, 8, 7, 5, 5, 4, 16, 16, 16, 15, 15, 15, 12, 9, 7, 6, 5, 2, 8, 7, 5, 5, 2, 1, 18, 14, 13, 11, 11, 9, 7, 6, 6, 5, 4, 4, 14, 12, 8, 6, 5, 3, 13, 13, 13, 12, 11, 11, 1, 1, 1, 1, 1, 1, 10, 10, 10, 10, 10, 10, 12, 12, 9, 8, 8, 5, 15, 14, 12, 12, 10, 10, 14, 14, 14, 14, 14, 14, 17, 14, 14, 11, 9, 9, 11, 11, 9, 7, 7, 4, 8, 8, 8, 8, 8, 8, 14, 12, 12, 9, 8, 8, 10, 9, 8, 7, 6, 6, 9, 8, 7, 5, 5, 4, 9, 7, 6, 6, 4, 3, 12, 9, 7, 7, 5, 3, 19, 16, 15, 15, 14, 12, 20, 14, 12, 9, 6, 6, 20, 17, 15, 12, 9, 7, 20, 19, 17, 17, 15, 15, 12, 11, 11, 11, 11, 11, 18, 17, 16, 15, 15, 14
 |10, 8, 7, 5, 4, 3, 15, 13, 10, 8, 6, 5, 7, 6, 6, 6, 5, 4, 5, 5, 5, 4, 4, 4, 11, 10, 10, 10, 9, 9, 17, 17, 17, 17, 17, 17, 18, 16, 14, 12, 11, 9, 16, 13, 10, 8, 7, 3, 18, 18, 18, 18, 17, 17, 19, 16, 12, 12, 9, 6, 8, 6, 4, 3, 2, 2, 14, 14, 14, 14, 13, 13, 12, 11, 11, 10, 10, 10, 17, 17, 15, 12, 7, 7, 7, 6, 4, 4, 2, 2, 19, 19, 18, 18, 18, 17, 10, 10, 10, 9, 8, 8, 19, 19, 19, 18, 17, 17, 7, 6, 6, 5, 5, 5, 19, 14, 14, 9, 8, 2, 17, 15, 13, 8, 5, 5, 20, 19, 18, 16, 15, 15, 14, 12, 11, 11, 9, 7, 15, 14, 10, 7, 6, 3, 9, 9, 9, 8, 8, 8, 13, 12, 9, 8, 6, 5, 11, 8, 7, 5, 2, 1, 19, 14, 14, 11, 9, 4, 16, 14, 14, 12, 12, 10, 4, 3, 2, 2, 1, 1, 6, 5, 5, 5, 5, 5, 12, 11, 11, 9, 8, 5, 16, 14, 13, 12, 9, 6, 14, 12, 10, 9, 8, 7, 19, 18, 17, 14, 13, 11, 9, 8, 5, 4, 4, 2, 15, 14, 13, 13, 12, 11, 14, 13, 13, 12, 11, 11, 12, 10, 9, 6, 4, 4, 16, 14, 12, 9, 6, 4, 13, 13, 13, 13, 13, 13, 17, 14, 11, 10, 7, 5, 17, 16, 14, 11, 9, 8, 19, 16, 15, 11, 11, 9, 14, 12, 10, 6, 4, 2, 11, 11, 9, 8, 8, 7, 2, 2, 2, 2, 1, 1, 7, 7, 5, 3, 3, 1, 15, 14, 11, 9, 7, 3, 16, 13, 13, 9, 8, 7|];